NAME : input200_9.txt .out.tour
COMMENT : Tour for input200_9.txt .tsp (Length 2785.78)
TYPE : TOUR
DIMENSION : 200
TOUR_SECTION
1
193
78
2
175
173
27
67
200
21
36
89
146
128
132
44
110
53
142
34
85
91
158
83
133
182
33
8
59
69
57
174
60
144
101
123
105
160
92
42
159
166
71
61
73
81
55
72
188
129
189
96
154
143
32
140
16
20
15
197
28
122
156
7
79
10
195
117
100
148
150
84
185
167
77
196
52
50
190
199
37
187
98
54
181
136
162
180
192
75
172
139
51
40
131
155
95
90
183
56
194
80
114
46
41
157
38
134
121
17
191
135
39
9
124
14
115
119
24
19
171
62
86
106
102
103
99
116
168
165
163
141
152
5
74
184
112
186
151
87
26
104
170
145
94
177
18
68
169
118
130
113
126
70
161
137
30
47
179
127
49
82
109
125
149
4
63
6
111
13
93
153
66
178
64
76
138
65
198
35
88
45
97
31
48
147
22
108
107
176
11
43
164
12
120
29
25
23
58
3
1
